10
10000 67 82 94 10000 70 99 31 10000 22 
67 10000 67 34 10000 10000 53 93 53 41 
82 67 10000 10000 56 93 72 64 10000 10000 
94 34 10000 10000 85 38 64 70 76 10000 
10000 10000 56 85 10000 89 97 76 25 73 
70 10000 93 38 89 10000 28 25 24 10000 
99 53 72 64 97 28 10000 86 36 92 
31 93 64 70 76 25 86 10000 54 99 
10000 53 10000 76 25 24 36 54 10000 10000 
22 41 10000 10000 73 10000 92 99 10000 10000 
